language ESSENCE' 1.0

letting n_boats be 5
letting n_periods be 4
letting crew_FunctionAsRelation_RelationAsSet_Explicit_1 be [1, 2, 3, 4, 5; int(1..5)]
letting crew_FunctionAsRelation_RelationAsSet_Explicit_2 be [2, 2, 2, 2, 4; int(1..5)]
letting capacity_FunctionAsRelation_RelationAsSet_Explicit_1 be [1, 2, 3, 4, 5; int(1..5)]
letting capacity_FunctionAsRelation_RelationAsSet_Explicit_2 be [6, 8, 12, 12, 12; int(1..5)]
letting fin1 be 5
letting fin2 be 12
letting fin3 be 5
letting fin4 be 4
